ilp_joint/output/crop rotation_ilp.lp
Maximize
  2.0385885644909297e-04 Z_319_2_0 + 6.5555382448403293e-04 Z_319_2_1
   + 0.0376562618709405 Z_319_2_2 + 0.1235720754597468 Z_319_2_3
   + 0.7379122499883797 Z_319_2_4 + 0.0155734527270005 Z_319_5_0
   + 0.0339577252383731 Z_319_5_1 + 0.00246628027246215 Z_319_5_2
   + 0.0283579640010752 Z_319_5_3 + 0.819644577761089 Z_319_5_4
   + 2.0385885644909297e-04 Z_319_4_0 + 6.5555382448403293e-04 Z_319_4_1
   + 0.0376562618709405 Z_319_4_2 + 0.1235720754597468 Z_319_4_3
   + 0.7379122499883797 Z_319_4_4 + 0.00115240840785379 Z_319_0_0
   + 0.0012050128310313 Z_319_0_1 + 0.00445923907981588 Z_319_0_2
   + 0.00589110889268735 Z_319_0_3 + 0.8872922307886117 Z_319_0_4
   + 0.012454576105568 Z_319_3_0 + 0.021527660390189 Z_319_3_1
   + 0.00444056636592473 Z_319_3_2 + 0.0487108633908334 Z_319_3_3
   + 0.8128663337474848 Z_319_3_4 + 0.0040602156865356 Z_319_1_0
   + 0.0410796615593919 Z_319_1_1 + 0.0274910890674826 Z_319_1_2
   + 0.0815829753401627 Z_319_1_3 + 0.745786058346427 Z_319_1_4
   + 0.024144932906552 Z_617_4_0 + 0.00998820326364644 Z_617_4_1
   + 0.00662696306696846 Z_617_4_2 + 0.1453550525347971 Z_617_4_3
   + 0.7138848482280361 Z_617_4_4 + 0.00407467348077054 Z_617_2_0
   + 9.8987662589132466e-04 Z_617_2_1 + 0.00274618267596321 Z_617_2_2
   + 0.7780895832833945 Z_617_2_3 + 0.1140996839339803 Z_617_2_4
   + 0.00407467348077054 Z_617_5_0 + 9.8987662589132466e-04 Z_617_5_1
   + 0.00274618267596321 Z_617_5_2 + 0.7780895832833945 Z_617_5_3
   + 0.1140996839339803 Z_617_5_4 + 0.00573824989783759 Z_617_1_0
   + 0.00218556714570623 Z_617_1_1 + 0.00247800264174846 Z_617_1_2
   + 0.00715117880545662 Z_617_1_3 + 0.882447001509251 Z_617_1_4
   + 0.00219156339056211 Z_617_0_0 + 0.000609662 Z_617_0_1
   + 0.00499908555731239 Z_617_0_2 + 0.00835593349595339 Z_617_0_3
   + 0.8838437556093054 Z_617_0_4 + 0.00407467348077054 Z_617_3_0
   + 9.8987662589132466e-04 Z_617_3_1 + 0.00274618267596321 Z_617_3_2
   + 0.7780895832833945 Z_617_3_3 + 0.1140996839339803 Z_617_3_4
   + 0.0011417730528661 Z_415_0_0 + 7.3316979529440324e-04 Z_415_0_1
   + 0.0171939998979514 Z_415_0_2 + 0.6441342962698311 Z_415_0_3
   + 0.2367967609840569 Z_415_0_4 + 0.0144865947794487 Z_415_4_0
   + 0.0400318027921877 Z_415_4_1 + 0.0169906474605942 Z_415_4_2
   + 0.1762409121850985 Z_415_4_3 + 0.652250042782671 Z_415_4_4
   + 0.00587520212934264 Z_415_2_0 + 0.00609853524563916 Z_415_2_1
   + 0.0122592532007518 Z_415_2_2 + 0.3154542334387103 Z_415_2_3
   + 0.5603127759855562 Z_415_2_4 + 0.0144865947794487 Z_415_3_0
   + 0.0400318027921877 Z_415_3_1 + 0.0169906474605942 Z_415_3_2
   + 0.1762409121850985 Z_415_3_3 + 0.652250042782671 Z_415_3_4
   + 0.0144865947794487 Z_415_1_0 + 0.0400318027921877 Z_415_1_1
   + 0.0169906474605942 Z_415_1_2 + 0.1762409121850985 Z_415_1_3
   + 0.652250042782671 Z_415_1_4 + 0.00217649521750803 Z_573_0_0
   + 0.00185923875401638 Z_573_0_1 + 0.0021546085359359 Z_573_0_2
   + 0.6443571195643534 Z_573_0_3 + 0.2494525379281866 Z_573_0_4
   + 0.00220005070815409 Z_98_1_0 + 0.00235930930008732 Z_98_1_1
   + 0.8161305134095067 Z_98_1_2 + 0.00176128705583529 Z_98_1_3
   + 0.0775488395264166 Z_98_1_4 + [
   0.0711711651622455 Z_319_5_0 * Z_617_4_0
   + 0.0504179251872752 Z_319_5_0 * Z_617_2_0
   + 0.0547957539653121 Z_319_5_0 * Z_617_5_0
   + 0.0636781192983344 Z_319_5_0 * Z_415_4_0
   + 0.0636781192983344 Z_319_5_0 * Z_415_3_0
   + 0.0636781192983344 Z_319_5_0 * Z_415_1_0
   + 0.0636781192983344 Z_319_5_0 * Z_573_0_0
   + 0.014792899408284 Z_319_5_0 * Z_98_1_0
   + 0.0711711651622455 Z_319_5_1 * Z_617_4_1
   + 0.0504179251872752 Z_319_5_1 * Z_617_2_1
   + 0.0547957539653121 Z_319_5_1 * Z_617_5_1
   + 0.0636781192983344 Z_319_5_1 * Z_415_4_1
   + 0.0636781192983344 Z_319_5_1 * Z_415_3_1
   + 0.0636781192983344 Z_319_5_1 * Z_415_1_1
   + 0.0636781192983344 Z_319_5_1 * Z_573_0_1
   + 0.014792899408284 Z_319_5_1 * Z_98_1_1
   + 0.0711711651622455 Z_319_5_2 * Z_617_4_2
   + 0.0504179251872752 Z_319_5_2 * Z_617_2_2
   + 0.0547957539653121 Z_319_5_2 * Z_617_5_2
   + 0.0636781192983344 Z_319_5_2 * Z_415_4_2
   + 0.0636781192983344 Z_319_5_2 * Z_415_3_2
   + 0.0636781192983344 Z_319_5_2 * Z_415_1_2
   + 0.0636781192983344 Z_319_5_2 * Z_573_0_2
   + 0.014792899408284 Z_319_5_2 * Z_98_1_2
   + 0.0711711651622455 Z_319_5_3 * Z_617_4_3
   + 0.0504179251872752 Z_319_5_3 * Z_617_2_3
   + 0.0547957539653121 Z_319_5_3 * Z_617_5_3
   + 0.0636781192983344 Z_319_5_3 * Z_415_4_3
   + 0.0636781192983344 Z_319_5_3 * Z_415_3_3
   + 0.0636781192983344 Z_319_5_3 * Z_415_1_3
   + 0.0636781192983344 Z_319_5_3 * Z_573_0_3
   + 0.014792899408284 Z_319_5_3 * Z_98_1_3
   + 0.0711711651622455 Z_319_5_4 * Z_617_4_4
   + 0.0504179251872752 Z_319_5_4 * Z_617_2_4
   + 0.0547957539653121 Z_319_5_4 * Z_617_5_4
   + 0.0636781192983344 Z_319_5_4 * Z_415_4_4
   + 0.0636781192983344 Z_319_5_4 * Z_415_3_4
   + 0.0636781192983344 Z_319_5_4 * Z_415_1_4
   + 0.0636781192983344 Z_319_5_4 * Z_573_0_4
   + 0.014792899408284 Z_319_5_4 * Z_98_1_4
   + 0.0711711651622455 Z_319_4_0 * Z_617_4_0
   + 0.0826511091432133 Z_319_4_0 * Z_617_2_0
   + 0.0547957539653121 Z_319_4_0 * Z_617_5_0
   + 0.0478651828797093 Z_319_4_0 * Z_415_4_0
   + 0.0478651828797093 Z_319_4_0 * Z_415_3_0
   + 0.0478651828797093 Z_319_4_0 * Z_415_1_0
   + 0.0518943647797533 Z_319_4_0 * Z_573_0_0
   + 0.014792899408284 Z_319_4_0 * Z_98_1_0
   + 0.0711711651622455 Z_319_4_1 * Z_617_4_1
   + 0.0826511091432133 Z_319_4_1 * Z_617_2_1
   + 0.0547957539653121 Z_319_4_1 * Z_617_5_1
   + 0.0478651828797093 Z_319_4_1 * Z_415_4_1
   + 0.0478651828797093 Z_319_4_1 * Z_415_3_1
   + 0.0478651828797093 Z_319_4_1 * Z_415_1_1
   + 0.0518943647797533 Z_319_4_1 * Z_573_0_1
   + 0.014792899408284 Z_319_4_1 * Z_98_1_1
   + 0.0711711651622455 Z_319_4_2 * Z_617_4_2
   + 0.0826511091432133 Z_319_4_2 * Z_617_2_2
   + 0.0547957539653121 Z_319_4_2 * Z_617_5_2
   + 0.0478651828797093 Z_319_4_2 * Z_415_4_2
   + 0.0478651828797093 Z_319_4_2 * Z_415_3_2
   + 0.0478651828797093 Z_319_4_2 * Z_415_1_2
   + 0.0518943647797533 Z_319_4_2 * Z_573_0_2
   + 0.014792899408284 Z_319_4_2 * Z_98_1_2
   + 0.0711711651622455 Z_319_4_3 * Z_617_4_3
   + 0.0826511091432133 Z_319_4_3 * Z_617_2_3
   + 0.0547957539653121 Z_319_4_3 * Z_617_5_3
   + 0.0478651828797093 Z_319_4_3 * Z_415_4_3
   + 0.0478651828797093 Z_319_4_3 * Z_415_3_3
   + 0.0478651828797093 Z_319_4_3 * Z_415_1_3
   + 0.0518943647797533 Z_319_4_3 * Z_573_0_3
   + 0.014792899408284 Z_319_4_3 * Z_98_1_3
   + 0.0711711651622455 Z_319_4_4 * Z_617_4_4
   + 0.0826511091432133 Z_319_4_4 * Z_617_2_4
   + 0.0547957539653121 Z_319_4_4 * Z_617_5_4
   + 0.0478651828797093 Z_319_4_4 * Z_415_4_4
   + 0.0478651828797093 Z_319_4_4 * Z_415_3_4
   + 0.0478651828797093 Z_319_4_4 * Z_415_1_4
   + 0.0518943647797533 Z_319_4_4 * Z_573_0_4
   + 0.014792899408284 Z_319_4_4 * Z_98_1_4 + 0.004 Z_319_0_0 * Z_617_4_0
   + 0.004 Z_319_0_0 * Z_617_2_0 + 0.004 Z_319_0_0 * Z_617_5_0
   + 0.00305192231470472 Z_319_0_0 * Z_617_0_0
   + 0.00305192231470472 Z_319_0_0 * Z_415_0_0
   + 0.00305192231470472 Z_319_0_0 * Z_415_4_0
   + 5.16529e-05 Z_319_0_0 * Z_415_3_0 + 5.16529e-05 Z_319_0_0 * Z_415_1_0
   + 0.00213361507599209 Z_319_0_0 * Z_573_0_0
   + 0.0014972052169284 Z_319_0_0 * Z_98_1_0 + 0.004 Z_319_0_1 * Z_617_4_1
   + 0.004 Z_319_0_1 * Z_617_2_1 + 0.004 Z_319_0_1 * Z_617_5_1
   + 0.00305192231470472 Z_319_0_1 * Z_617_0_1
   + 0.00305192231470472 Z_319_0_1 * Z_415_0_1
   + 0.00305192231470472 Z_319_0_1 * Z_415_4_1
   + 5.16529e-05 Z_319_0_1 * Z_415_3_1 + 5.16529e-05 Z_319_0_1 * Z_415_1_1
   + 0.00213361507599209 Z_319_0_1 * Z_573_0_1
   + 0.0014972052169284 Z_319_0_1 * Z_98_1_1 + 0.004 Z_319_0_2 * Z_617_4_2
   + 0.004 Z_319_0_2 * Z_617_2_2 + 0.004 Z_319_0_2 * Z_617_5_2
   + 0.00305192231470472 Z_319_0_2 * Z_617_0_2
   + 0.00305192231470472 Z_319_0_2 * Z_415_0_2
   + 0.00305192231470472 Z_319_0_2 * Z_415_4_2
   + 5.16529e-05 Z_319_0_2 * Z_415_3_2 + 5.16529e-05 Z_319_0_2 * Z_415_1_2
   + 0.00213361507599209 Z_319_0_2 * Z_573_0_2
   + 0.0014972052169284 Z_319_0_2 * Z_98_1_2 + 0.004 Z_319_0_3 * Z_617_4_3
   + 0.004 Z_319_0_3 * Z_617_2_3 + 0.004 Z_319_0_3 * Z_617_5_3
   + 0.00305192231470472 Z_319_0_3 * Z_617_0_3
   + 0.00305192231470472 Z_319_0_3 * Z_415_0_3
   + 0.00305192231470472 Z_319_0_3 * Z_415_4_3
   + 5.16529e-05 Z_319_0_3 * Z_415_3_3 + 5.16529e-05 Z_319_0_3 * Z_415_1_3
   + 0.00213361507599209 Z_319_0_3 * Z_573_0_3
   + 0.0014972052169284 Z_319_0_3 * Z_98_1_3 + 0.004 Z_319_0_4 * Z_617_4_4
   + 0.004 Z_319_0_4 * Z_617_2_4 + 0.004 Z_319_0_4 * Z_617_5_4
   + 0.00305192231470472 Z_319_0_4 * Z_617_0_4
   + 0.00305192231470472 Z_319_0_4 * Z_415_0_4
   + 0.00305192231470472 Z_319_0_4 * Z_415_4_4
   + 5.16529e-05 Z_319_0_4 * Z_415_3_4 + 5.16529e-05 Z_319_0_4 * Z_415_1_4
   + 0.00213361507599209 Z_319_0_4 * Z_573_0_4
   + 0.0014972052169284 Z_319_0_4 * Z_98_1_4
   + 0.0182303138072186 Z_319_3_0 * Z_617_4_0
   + 0.0129144239184168 Z_319_3_0 * Z_617_2_0
   + 0.0140357936787116 Z_319_3_0 * Z_617_5_0
   + 0.00405818712860147 Z_319_3_0 * Z_573_0_0
   + 0.0182303138072186 Z_319_3_1 * Z_617_4_1
   + 0.0129144239184168 Z_319_3_1 * Z_617_2_1
   + 0.0140357936787116 Z_319_3_1 * Z_617_5_1
   + 0.00405818712860147 Z_319_3_1 * Z_573_0_1
   + 0.0182303138072186 Z_319_3_2 * Z_617_4_2
   + 0.0129144239184168 Z_319_3_2 * Z_617_2_2
   + 0.0140357936787116 Z_319_3_2 * Z_617_5_2
   + 0.00405818712860147 Z_319_3_2 * Z_573_0_2
   + 0.0182303138072186 Z_319_3_3 * Z_617_4_3
   + 0.0129144239184168 Z_319_3_3 * Z_617_2_3
   + 0.0140357936787116 Z_319_3_3 * Z_617_5_3
   + 0.00405818712860147 Z_319_3_3 * Z_573_0_3
   + 0.0182303138072186 Z_319_3_4 * Z_617_4_4
   + 0.0129144239184168 Z_319_3_4 * Z_617_2_4
   + 0.0140357936787116 Z_319_3_4 * Z_617_5_4
   + 0.00405818712860147 Z_319_3_4 * Z_573_0_4
   + 0.0184443713670322 Z_319_1_0 * Z_617_4_0
   + 0.0130660631112255 Z_319_1_0 * Z_617_2_0
   + 0.0142005998239422 Z_319_1_0 * Z_617_5_0 + 0.4 Z_319_1_0 * Z_617_1_0
   + 0.0376445757596752 Z_319_1_0 * Z_415_4_0
   + 0.0376445757596752 Z_319_1_0 * Z_415_3_0
   + 0.0376445757596752 Z_319_1_0 * Z_415_1_0
   + 0.0839650197224402 Z_319_1_0 * Z_573_0_0 + 0.1 Z_319_1_0 * Z_98_1_0
   + 0.0184443713670322 Z_319_1_1 * Z_617_4_1
   + 0.0130660631112255 Z_319_1_1 * Z_617_2_1
   + 0.0142005998239422 Z_319_1_1 * Z_617_5_1 + 0.4 Z_319_1_1 * Z_617_1_1
   + 0.0376445757596752 Z_319_1_1 * Z_415_4_1
   + 0.0376445757596752 Z_319_1_1 * Z_415_3_1
   + 0.0376445757596752 Z_319_1_1 * Z_415_1_1
   + 0.0839650197224402 Z_319_1_1 * Z_573_0_1 + 0.1 Z_319_1_1 * Z_98_1_1
   + 0.0184443713670322 Z_319_1_2 * Z_617_4_2
   + 0.0130660631112255 Z_319_1_2 * Z_617_2_2
   + 0.0142005998239422 Z_319_1_2 * Z_617_5_2 + 0.4 Z_319_1_2 * Z_617_1_2
   + 0.0376445757596752 Z_319_1_2 * Z_415_4_2
   + 0.0376445757596752 Z_319_1_2 * Z_415_3_2
   + 0.0376445757596752 Z_319_1_2 * Z_415_1_2
   + 0.0839650197224402 Z_319_1_2 * Z_573_0_2 + 0.1 Z_319_1_2 * Z_98_1_2
   + 0.0184443713670322 Z_319_1_3 * Z_617_4_3
   + 0.0130660631112255 Z_319_1_3 * Z_617_2_3
   + 0.0142005998239422 Z_319_1_3 * Z_617_5_3 + 0.4 Z_319_1_3 * Z_617_1_3
   + 0.0376445757596752 Z_319_1_3 * Z_415_4_3
   + 0.0376445757596752 Z_319_1_3 * Z_415_3_3
   + 0.0376445757596752 Z_319_1_3 * Z_415_1_3
   + 0.0839650197224402 Z_319_1_3 * Z_573_0_3 + 0.1 Z_319_1_3 * Z_98_1_3
   + 0.0184443713670322 Z_319_1_4 * Z_617_4_4
   + 0.0130660631112255 Z_319_1_4 * Z_617_2_4
   + 0.0142005998239422 Z_319_1_4 * Z_617_5_4 + 0.4 Z_319_1_4 * Z_617_1_4
   + 0.0376445757596752 Z_319_1_4 * Z_415_4_4
   + 0.0376445757596752 Z_319_1_4 * Z_415_3_4
   + 0.0376445757596752 Z_319_1_4 * Z_415_1_4
   + 0.0839650197224402 Z_319_1_4 * Z_573_0_4 + 0.1 Z_319_1_4 * Z_98_1_4
   + 0.0449970943741603 Z_617_4_0 * Z_415_4_0
   + 0.0449970943741603 Z_617_4_0 * Z_415_3_0
   + 0.0449970943741603 Z_617_4_0 * Z_415_1_0
   + 0.0449970943741603 Z_617_4_0 * Z_573_0_0 + 0.4 Z_617_4_0 * Z_98_1_0
   + 0.0449970943741603 Z_617_4_1 * Z_415_4_1
   + 0.0449970943741603 Z_617_4_1 * Z_415_3_1
   + 0.0449970943741603 Z_617_4_1 * Z_415_1_1
   + 0.0449970943741603 Z_617_4_1 * Z_573_0_1 + 0.4 Z_617_4_1 * Z_98_1_1
   + 0.0449970943741603 Z_617_4_2 * Z_415_4_2
   + 0.0449970943741603 Z_617_4_2 * Z_415_3_2
   + 0.0449970943741603 Z_617_4_2 * Z_415_1_2
   + 0.0449970943741603 Z_617_4_2 * Z_573_0_2 + 0.4 Z_617_4_2 * Z_98_1_2
   + 0.0449970943741603 Z_617_4_3 * Z_415_4_3
   + 0.0449970943741603 Z_617_4_3 * Z_415_3_3
   + 0.0449970943741603 Z_617_4_3 * Z_415_1_3
   + 0.0449970943741603 Z_617_4_3 * Z_573_0_3 + 0.4 Z_617_4_3 * Z_98_1_3
   + 0.0449970943741603 Z_617_4_4 * Z_415_4_4
   + 0.0449970943741603 Z_617_4_4 * Z_415_3_4
   + 0.0449970943741603 Z_617_4_4 * Z_415_1_4
   + 0.0449970943741603 Z_617_4_4 * Z_573_0_4 + 0.4 Z_617_4_4 * Z_98_1_4
   + 0.0318761134882283 Z_617_2_0 * Z_415_4_0
   + 0.0318761134882283 Z_617_2_0 * Z_415_3_0
   + 0.0318761134882283 Z_617_2_0 * Z_415_1_0
   + 0.0638335442103839 Z_617_2_0 * Z_573_0_0 + 0.4 Z_617_2_0 * Z_98_1_0
   + 0.0318761134882283 Z_617_2_1 * Z_415_4_1
   + 0.0318761134882283 Z_617_2_1 * Z_415_3_1
   + 0.0318761134882283 Z_617_2_1 * Z_415_1_1
   + 0.0638335442103839 Z_617_2_1 * Z_573_0_1 + 0.4 Z_617_2_1 * Z_98_1_1
   + 0.0318761134882283 Z_617_2_2 * Z_415_4_2
   + 0.0318761134882283 Z_617_2_2 * Z_415_3_2
   + 0.0318761134882283 Z_617_2_2 * Z_415_1_2
   + 0.0638335442103839 Z_617_2_2 * Z_573_0_2 + 0.4 Z_617_2_2 * Z_98_1_2
   + 0.0318761134882283 Z_617_2_3 * Z_415_4_3
   + 0.0318761134882283 Z_617_2_3 * Z_415_3_3
   + 0.0318761134882283 Z_617_2_3 * Z_415_1_3
   + 0.0638335442103839 Z_617_2_3 * Z_573_0_3 + 0.4 Z_617_2_3 * Z_98_1_3
   + 0.0318761134882283 Z_617_2_4 * Z_415_4_4
   + 0.0318761134882283 Z_617_2_4 * Z_415_3_4
   + 0.0318761134882283 Z_617_2_4 * Z_415_1_4
   + 0.0638335442103839 Z_617_2_4 * Z_573_0_4 + 0.4 Z_617_2_4 * Z_98_1_4
   + 0.0346439419231031 Z_617_5_0 * Z_415_4_0
   + 0.0346439419231031 Z_617_5_0 * Z_415_3_0
   + 0.0346439419231031 Z_617_5_0 * Z_415_1_0
   + 0.0346439419231031 Z_617_5_0 * Z_573_0_0 + 0.4 Z_617_5_0 * Z_98_1_0
   + 0.0346439419231031 Z_617_5_1 * Z_415_4_1
   + 0.0346439419231031 Z_617_5_1 * Z_415_3_1
   + 0.0346439419231031 Z_617_5_1 * Z_415_1_1
   + 0.0346439419231031 Z_617_5_1 * Z_573_0_1 + 0.4 Z_617_5_1 * Z_98_1_1
   + 0.0346439419231031 Z_617_5_2 * Z_415_4_2
   + 0.0346439419231031 Z_617_5_2 * Z_415_3_2
   + 0.0346439419231031 Z_617_5_2 * Z_415_1_2
   + 0.0346439419231031 Z_617_5_2 * Z_573_0_2 + 0.4 Z_617_5_2 * Z_98_1_2
   + 0.0346439419231031 Z_617_5_3 * Z_415_4_3
   + 0.0346439419231031 Z_617_5_3 * Z_415_3_3
   + 0.0346439419231031 Z_617_5_3 * Z_415_1_3
   + 0.0346439419231031 Z_617_5_3 * Z_573_0_3 + 0.4 Z_617_5_3 * Z_98_1_3
   + 0.0346439419231031 Z_617_5_4 * Z_415_4_4
   + 0.0346439419231031 Z_617_5_4 * Z_415_3_4
   + 0.0346439419231031 Z_617_5_4 * Z_415_1_4
   + 0.0346439419231031 Z_617_5_4 * Z_573_0_4 + 0.4 Z_617_5_4 * Z_98_1_4
   + 8.85279e-05 Z_617_1_0 * Z_573_0_0 + 0.000510204 Z_617_1_0 * Z_98_1_0
   + 8.85279e-05 Z_617_1_1 * Z_573_0_1 + 0.000510204 Z_617_1_1 * Z_98_1_1
   + 8.85279e-05 Z_617_1_2 * Z_573_0_2 + 0.000510204 Z_617_1_2 * Z_98_1_2
   + 8.85279e-05 Z_617_1_3 * Z_573_0_3 + 0.000510204 Z_617_1_3 * Z_98_1_3
   + 8.85279e-05 Z_617_1_4 * Z_573_0_4 + 0.000510204 Z_617_1_4 * Z_98_1_4
   + 0.4 Z_617_0_0 * Z_415_0_0 + 0.4 Z_617_0_0 * Z_415_4_0
   + 1.1028588204404425e-04 Z_617_0_0 * Z_573_0_0
   + 0.4 Z_617_0_1 * Z_415_0_1 + 0.4 Z_617_0_1 * Z_415_4_1
   + 1.1028588204404425e-04 Z_617_0_1 * Z_573_0_1
   + 0.4 Z_617_0_2 * Z_415_0_2 + 0.4 Z_617_0_2 * Z_415_4_2
   + 1.1028588204404425e-04 Z_617_0_2 * Z_573_0_2
   + 0.4 Z_617_0_3 * Z_415_0_3 + 0.4 Z_617_0_3 * Z_415_4_3
   + 1.1028588204404425e-04 Z_617_0_3 * Z_573_0_3
   + 0.4 Z_617_0_4 * Z_415_0_4 + 0.4 Z_617_0_4 * Z_415_4_4
   + 1.1028588204404425e-04 Z_617_0_4 * Z_573_0_4
   + 1.1028588204404425e-04 Z_415_0_0 * Z_573_0_0
   + 1.1028588204404425e-04 Z_415_0_1 * Z_573_0_1
   + 1.1028588204404425e-04 Z_415_0_2 * Z_573_0_2
   + 1.1028588204404425e-04 Z_415_0_3 * Z_573_0_3
   + 1.1028588204404425e-04 Z_415_0_4 * Z_573_0_4
   + 0.1012330126876797 Z_415_4_0 * Z_573_0_0
   + 0.1012330126876797 Z_415_4_1 * Z_573_0_1
   + 0.1012330126876797 Z_415_4_2 * Z_573_0_2
   + 0.1012330126876797 Z_415_4_3 * Z_573_0_3
   + 0.1012330126876797 Z_415_4_4 * Z_573_0_4
   + 0.115983075751207 Z_415_3_0 * Z_573_0_0
   + 0.115983075751207 Z_415_3_1 * Z_573_0_1
   + 0.115983075751207 Z_415_3_2 * Z_573_0_2
   + 0.115983075751207 Z_415_3_3 * Z_573_0_3
   + 0.115983075751207 Z_415_3_4 * Z_573_0_4
   + 0.1073818266248234 Z_415_1_0 * Z_573_0_0
   + 0.1073818266248234 Z_415_1_1 * Z_573_0_1
   + 0.1073818266248234 Z_415_1_2 * Z_573_0_2
   + 0.1073818266248234 Z_415_1_3 * Z_573_0_3
   + 0.1073818266248234 Z_415_1_4 * Z_573_0_4
   + 8.1518929803844832e-04 Z_573_0_0 * Z_98_1_0
   + 8.1518929803844832e-04 Z_573_0_1 * Z_98_1_1
   + 8.1518929803844832e-04 Z_573_0_2 * Z_98_1_2
   + 8.1518929803844832e-04 Z_573_0_3 * Z_98_1_3
   + 8.1518929803844832e-04 Z_573_0_4 * Z_98_1_4 ] / 2 
Subject To
 constraint1_3192: Z_319_2_0 + Z_319_2_1 + Z_319_2_2 + Z_319_2_3
   + Z_319_2_4 <= 1
 constraint1_3195: Z_319_5_0 + Z_319_5_1 + Z_319_5_2 + Z_319_5_3
   + Z_319_5_4 <= 1
 constraint1_3194: Z_319_4_0 + Z_319_4_1 + Z_319_4_2 + Z_319_4_3
   + Z_319_4_4 <= 1
 constraint1_3190: Z_319_0_0 + Z_319_0_1 + Z_319_0_2 + Z_319_0_3
   + Z_319_0_4 <= 1
 constraint1_3193: Z_319_3_0 + Z_319_3_1 + Z_319_3_2 + Z_319_3_3
   + Z_319_3_4 <= 1
 constraint1_3191: Z_319_1_0 + Z_319_1_1 + Z_319_1_2 + Z_319_1_3
   + Z_319_1_4 <= 1
 constraint1_6174: Z_617_4_0 + Z_617_4_1 + Z_617_4_2 + Z_617_4_3
   + Z_617_4_4 <= 1
 constraint1_6172: Z_617_2_0 + Z_617_2_1 + Z_617_2_2 + Z_617_2_3
   + Z_617_2_4 <= 1
 constraint1_6175: Z_617_5_0 + Z_617_5_1 + Z_617_5_2 + Z_617_5_3
   + Z_617_5_4 <= 1
 constraint1_6171: Z_617_1_0 + Z_617_1_1 + Z_617_1_2 + Z_617_1_3
   + Z_617_1_4 <= 1
 constraint1_6170: Z_617_0_0 + Z_617_0_1 + Z_617_0_2 + Z_617_0_3
   + Z_617_0_4 <= 1
 constraint1_6173: Z_617_3_0 + Z_617_3_1 + Z_617_3_2 + Z_617_3_3
   + Z_617_3_4 <= 1
 constraint1_4150: Z_415_0_0 + Z_415_0_1 + Z_415_0_2 + Z_415_0_3
   + Z_415_0_4 <= 1
 constraint1_4154: Z_415_4_0 + Z_415_4_1 + Z_415_4_2 + Z_415_4_3
   + Z_415_4_4 <= 1
 constraint1_4152: Z_415_2_0 + Z_415_2_1 + Z_415_2_2 + Z_415_2_3
   + Z_415_2_4 <= 1
 constraint1_4153: Z_415_3_0 + Z_415_3_1 + Z_415_3_2 + Z_415_3_3
   + Z_415_3_4 <= 1
 constraint1_4151: Z_415_1_0 + Z_415_1_1 + Z_415_1_2 + Z_415_1_3
   + Z_415_1_4 <= 1
 constraint1_5730: Z_573_0_0 + Z_573_0_1 + Z_573_0_2 + Z_573_0_3
   + Z_573_0_4 <= 1
 constraint1_981: Z_98_1_0 + Z_98_1_1 + Z_98_1_2 + Z_98_1_3 + Z_98_1_4
   <= 1
 constraint2_3190: Z_319_2_0 + Z_319_5_0 + Z_319_4_0 + Z_319_0_0
   + Z_319_3_0 + Z_319_1_0 <= 1
 constraint2_3191: Z_319_2_1 + Z_319_5_1 + Z_319_4_1 + Z_319_0_1
   + Z_319_3_1 + Z_319_1_1 <= 1
 constraint2_3192: Z_319_2_2 + Z_319_5_2 + Z_319_4_2 + Z_319_0_2
   + Z_319_3_2 + Z_319_1_2 <= 1
 constraint2_3193: Z_319_2_3 + Z_319_5_3 + Z_319_4_3 + Z_319_0_3
   + Z_319_3_3 + Z_319_1_3 <= 1
 constraint2_6170: Z_617_4_0 + Z_617_2_0 + Z_617_5_0 + Z_617_1_0
   + Z_617_0_0 + Z_617_3_0 <= 1
 constraint2_6171: Z_617_4_1 + Z_617_2_1 + Z_617_5_1 + Z_617_1_1
   + Z_617_0_1 + Z_617_3_1 <= 1
 constraint2_6172: Z_617_4_2 + Z_617_2_2 + Z_617_5_2 + Z_617_1_2
   + Z_617_0_2 + Z_617_3_2 <= 1
 constraint2_6173: Z_617_4_3 + Z_617_2_3 + Z_617_5_3 + Z_617_1_3
   + Z_617_0_3 + Z_617_3_3 <= 1
 constraint2_5000: <= 1
 constraint2_5001: <= 1
 constraint2_5002: <= 1
 constraint2_5003: <= 1
 constraint2_4150: Z_415_0_0 + Z_415_4_0 + Z_415_2_0 + Z_415_3_0
   + Z_415_1_0 <= 1
 constraint2_4151: Z_415_0_1 + Z_415_4_1 + Z_415_2_1 + Z_415_3_1
   + Z_415_1_1 <= 1
 constraint2_4152: Z_415_0_2 + Z_415_4_2 + Z_415_2_2 + Z_415_3_2
   + Z_415_1_2 <= 1
 constraint2_4153: Z_415_0_3 + Z_415_4_3 + Z_415_2_3 + Z_415_3_3
   + Z_415_1_3 <= 1
 constraint2_5730: Z_573_0_0 <= 1
 constraint2_5731: Z_573_0_1 <= 1
 constraint2_5732: Z_573_0_2 <= 1
 constraint2_5733: Z_573_0_3 <= 1
 constraint2_5340: <= 1
 constraint2_5341: <= 1
 constraint2_5342: <= 1
 constraint2_5343: <= 1
 constraint2_980: Z_98_1_0 <= 1
 constraint2_981: Z_98_1_1 <= 1
 constraint2_982: Z_98_1_2 <= 1
 constraint2_983: Z_98_1_3 <= 1
Bounds
Binaries
 Z_319_2_0 Z_319_2_1 Z_319_2_2 Z_319_2_3 Z_319_2_4 Z_319_5_0 Z_319_5_1
 Z_319_5_2 Z_319_5_3 Z_319_5_4 Z_319_4_0 Z_319_4_1 Z_319_4_2 Z_319_4_3
 Z_319_4_4 Z_319_0_0 Z_319_0_1 Z_319_0_2 Z_319_0_3 Z_319_0_4 Z_319_3_0
 Z_319_3_1 Z_319_3_2 Z_319_3_3 Z_319_3_4 Z_319_1_0 Z_319_1_1 Z_319_1_2
 Z_319_1_3 Z_319_1_4 Z_617_4_0 Z_617_4_1 Z_617_4_2 Z_617_4_3 Z_617_4_4
 Z_617_2_0 Z_617_2_1 Z_617_2_2 Z_617_2_3 Z_617_2_4 Z_617_5_0 Z_617_5_1
 Z_617_5_2 Z_617_5_3 Z_617_5_4 Z_617_1_0 Z_617_1_1 Z_617_1_2 Z_617_1_3
 Z_617_1_4 Z_617_0_0 Z_617_0_1 Z_617_0_2 Z_617_0_3 Z_617_0_4 Z_617_3_0
 Z_617_3_1 Z_617_3_2 Z_617_3_3 Z_617_3_4 Z_415_0_0 Z_415_0_1 Z_415_0_2
 Z_415_0_3 Z_415_0_4 Z_415_4_0 Z_415_4_1 Z_415_4_2 Z_415_4_3 Z_415_4_4
 Z_415_2_0 Z_415_2_1 Z_415_2_2 Z_415_2_3 Z_415_2_4 Z_415_3_0 Z_415_3_1
 Z_415_3_2 Z_415_3_3 Z_415_3_4 Z_415_1_0 Z_415_1_1 Z_415_1_2 Z_415_1_3
 Z_415_1_4 Z_573_0_0 Z_573_0_1 Z_573_0_2 Z_573_0_3 Z_573_0_4 Z_98_1_0
 Z_98_1_1 Z_98_1_2 Z_98_1_3 Z_98_1_4
End
