ilp_joint/output/crop rotation_ilp.mps
NAME crop rotation_srl_ilp
* Max problem is converted into Min one
ROWS
 N  OBJ
 L  constraint1_160
 L  constraint1_5671
 L  constraint1_5670
 L  constraint1_660
 L  constraint1_981
 L  constraint1_980
 L  constraint1_6670
 L  constraint1_1140
 L  constraint2_160
 L  constraint2_161
 L  constraint2_162
 L  constraint2_163
 L  constraint2_5670
 L  constraint2_5671
 L  constraint2_5672
 L  constraint2_5673
 L  constraint2_660
 L  constraint2_661
 L  constraint2_662
 L  constraint2_663
 L  constraint2_980
 L  constraint2_981
 L  constraint2_982
 L  constraint2_983
 L  constraint2_6670
 L  constraint2_6671
 L  constraint2_6672
 L  constraint2_6673
 L  constraint2_1140
 L  constraint2_1141
 L  constraint2_1142
 L  constraint2_1143
COLUMNS
    MARKER    'MARKER'                 'INTORG'
    Z_16_0_0  OBJ       -1.7591728766357397e-04
    Z_16_0_0  constraint1_160  1
    Z_16_0_0  constraint2_160  1
    Z_16_0_1  OBJ       -2.4616676478326549e-02
    Z_16_0_1  constraint1_160  1
    Z_16_0_1  constraint2_161  1
    Z_16_0_2  OBJ       -9.3730671873075308e-02
    Z_16_0_2  constraint1_160  1
    Z_16_0_2  constraint2_162  1
    Z_16_0_3  OBJ       -2.4696183307810690e-03
    Z_16_0_3  constraint1_160  1
    Z_16_0_3  constraint2_163  1
    Z_567_1_0  OBJ       -4.3494217086321287e-03
    Z_567_1_0  constraint1_5671  1
    Z_567_1_0  constraint2_5670  1
    Z_567_1_1  OBJ       -5.9890795990012570e-03
    Z_567_1_1  constraint1_5671  1
    Z_567_1_1  constraint2_5671  1
    Z_567_1_2  OBJ       -5.0772372187530646e-01
    Z_567_1_2  constraint1_5671  1
    Z_567_1_2  constraint2_5672  1
    Z_567_1_3  OBJ       -7.6581446552901481e-03
    Z_567_1_3  constraint1_5671  1
    Z_567_1_3  constraint2_5673  1
    Z_567_0_0  OBJ       -4.4522244590618953e-01
    Z_567_0_0  constraint1_5670  1
    Z_567_0_0  constraint2_5670  1
    Z_567_0_1  OBJ       -5.4812356043797916e-02
    Z_567_0_1  constraint1_5670  1
    Z_567_0_1  constraint2_5671  1
    Z_567_0_2  OBJ       -1.0316720996866147e-02
    Z_567_0_2  constraint1_5670  1
    Z_567_0_2  constraint2_5672  1
    Z_567_0_3  OBJ       -4.7313173284272009e-02
    Z_567_0_3  constraint1_5670  1
    Z_567_0_3  constraint2_5673  1
    Z_66_0_0  OBJ       -1.2575298464090690e-02
    Z_66_0_0  constraint1_660  1
    Z_66_0_0  constraint2_660  1
    Z_66_0_1  OBJ       -6.5523605386992537e-03
    Z_66_0_1  constraint1_660  1
    Z_66_0_1  constraint2_661  1
    Z_66_0_2  OBJ       -1.3587434642012564e-02
    Z_66_0_2  constraint1_660  1
    Z_66_0_2  constraint2_662  1
    Z_66_0_3  OBJ       -6.4719547461625815e-01
    Z_66_0_3  constraint1_660  1
    Z_66_0_3  constraint2_663  1
    Z_98_1_0  OBJ       -3.5768322323530776e-03
    Z_98_1_0  constraint1_981  1
    Z_98_1_0  constraint2_980  1
    Z_98_1_1  OBJ       -1.2303732394561262e-02
    Z_98_1_1  constraint1_981  1
    Z_98_1_1  constraint2_981  1
    Z_98_1_2  OBJ       -6.3997346319980741e-01
    Z_98_1_2  constraint1_981  1
    Z_98_1_2  constraint2_982  1
    Z_98_1_3  OBJ       -7.9579135169040270e-03
    Z_98_1_3  constraint1_981  1
    Z_98_1_3  constraint2_983  1
    Z_98_0_0  OBJ       -4.4522244590618953e-01
    Z_98_0_0  constraint1_980  1
    Z_98_0_0  constraint2_980  1
    Z_98_0_1  OBJ       -5.4812356043797916e-02
    Z_98_0_1  constraint1_980  1
    Z_98_0_1  constraint2_981  1
    Z_98_0_2  OBJ       -1.0316720996866147e-02
    Z_98_0_2  constraint1_980  1
    Z_98_0_2  constraint2_982  1
    Z_98_0_3  OBJ       -4.7313173284272009e-02
    Z_98_0_3  constraint1_980  1
    Z_98_0_3  constraint2_983  1
    Z_667_0_0  OBJ       -2.2047115998632551e-02
    Z_667_0_0  constraint1_6670  1
    Z_667_0_0  constraint2_6670  1
    Z_667_0_1  OBJ       -3.1010473254241510e-02
    Z_667_0_1  constraint1_6670  1
    Z_667_0_1  constraint2_6671  1
    Z_667_0_2  OBJ       -1.4534670337737660e-01
    Z_667_0_2  constraint1_6670  1
    Z_667_0_2  constraint2_6672  1
    Z_667_0_3  OBJ       -1.8500576149678843e-02
    Z_667_0_3  constraint1_6670  1
    Z_667_0_3  constraint2_6673  1
    Z_114_0_0  OBJ       -4.3651048200489600e-03
    Z_114_0_0  constraint1_1140  1
    Z_114_0_0  constraint2_1140  1
    Z_114_0_1  OBJ       -4.4249550607432962e-03
    Z_114_0_1  constraint1_1140  1
    Z_114_0_1  constraint2_1141  1
    Z_114_0_2  OBJ       -4.2072778621588348e-02
    Z_114_0_2  constraint1_1140  1
    Z_114_0_2  constraint2_1142  1
    Z_114_0_3  OBJ       -6.8031288865065664e-01
    Z_114_0_3  constraint1_1140  1
    Z_114_0_3  constraint2_1143  1
    MARKER    'MARKER'                 'INTEND'
RHS
    RHS1      constraint1_160  1
    RHS1      constraint1_5671  1
    RHS1      constraint1_5670  1
    RHS1      constraint1_660  1
    RHS1      constraint1_981  1
    RHS1      constraint1_980  1
    RHS1      constraint1_6670  1
    RHS1      constraint1_1140  1
    RHS1      constraint2_160  1
    RHS1      constraint2_161  1
    RHS1      constraint2_162  1
    RHS1      constraint2_163  1
    RHS1      constraint2_5670  1
    RHS1      constraint2_5671  1
    RHS1      constraint2_5672  1
    RHS1      constraint2_5673  1
    RHS1      constraint2_660  1
    RHS1      constraint2_661  1
    RHS1      constraint2_662  1
    RHS1      constraint2_663  1
    RHS1      constraint2_980  1
    RHS1      constraint2_981  1
    RHS1      constraint2_982  1
    RHS1      constraint2_983  1
    RHS1      constraint2_6670  1
    RHS1      constraint2_6671  1
    RHS1      constraint2_6672  1
    RHS1      constraint2_6673  1
    RHS1      constraint2_1140  1
    RHS1      constraint2_1141  1
    RHS1      constraint2_1142  1
    RHS1      constraint2_1143  1
BOUNDS
 UP BND1      Z_16_0_0  1
 UP BND1      Z_16_0_1  1
 UP BND1      Z_16_0_2  1
 UP BND1      Z_16_0_3  1
 UP BND1      Z_567_1_0  1
 UP BND1      Z_567_1_1  1
 UP BND1      Z_567_1_2  1
 UP BND1      Z_567_1_3  1
 UP BND1      Z_567_0_0  1
 UP BND1      Z_567_0_1  1
 UP BND1      Z_567_0_2  1
 UP BND1      Z_567_0_3  1
 UP BND1      Z_66_0_0  1
 UP BND1      Z_66_0_1  1
 UP BND1      Z_66_0_2  1
 UP BND1      Z_66_0_3  1
 UP BND1      Z_98_1_0  1
 UP BND1      Z_98_1_1  1
 UP BND1      Z_98_1_2  1
 UP BND1      Z_98_1_3  1
 UP BND1      Z_98_0_0  1
 UP BND1      Z_98_0_1  1
 UP BND1      Z_98_0_2  1
 UP BND1      Z_98_0_3  1
 UP BND1      Z_667_0_0  1
 UP BND1      Z_667_0_1  1
 UP BND1      Z_667_0_2  1
 UP BND1      Z_667_0_3  1
 UP BND1      Z_114_0_0  1
 UP BND1      Z_114_0_1  1
 UP BND1      Z_114_0_2  1
 UP BND1      Z_114_0_3  1
QUADOBJ
    Z_16_0_0  Z_66_0_0  -2.2242002980335981e-05
    Z_16_0_1  Z_66_0_1  -2.2242002980335981e-05
    Z_16_0_2  Z_66_0_2  -2.2242002980335981e-05
    Z_16_0_3  Z_66_0_3  -2.2242002980335981e-05
    Z_567_1_0  Z_66_0_0  -2.5510204081632645e-04
    Z_567_1_0  Z_98_1_0  -1.9999999999999996e-01
    Z_567_1_0  Z_98_0_0  -2.5510204081632645e-04
    Z_567_1_0  Z_114_0_0  -1.9999999999999996e-01
    Z_567_1_1  Z_66_0_1  -2.5510204081632645e-04
    Z_567_1_1  Z_98_1_1  -1.9999999999999996e-01
    Z_567_1_1  Z_98_0_1  -2.5510204081632645e-04
    Z_567_1_1  Z_114_0_1  -1.9999999999999996e-01
    Z_567_1_2  Z_66_0_2  -2.5510204081632645e-04
    Z_567_1_2  Z_98_1_2  -1.9999999999999996e-01
    Z_567_1_2  Z_98_0_2  -2.5510204081632645e-04
    Z_567_1_2  Z_114_0_2  -1.9999999999999996e-01
    Z_567_1_3  Z_66_0_3  -2.5510204081632645e-04
    Z_567_1_3  Z_98_1_3  -1.9999999999999996e-01
    Z_567_1_3  Z_98_0_3  -2.5510204081632645e-04
    Z_567_1_3  Z_114_0_3  -1.9999999999999996e-01
    Z_567_0_0  Z_66_0_0  -1.1815568592471748e-01
    Z_567_0_0  Z_98_1_0  -2.5510204081632645e-04
    Z_567_0_0  Z_98_0_0  -1.9999999999999996e-01
    Z_567_0_0  Z_114_0_0  -1.1815568592471748e-01
    Z_567_0_1  Z_66_0_1  -1.1815568592471748e-01
    Z_567_0_1  Z_98_1_1  -2.5510204081632645e-04
    Z_567_0_1  Z_98_0_1  -1.9999999999999996e-01
    Z_567_0_1  Z_114_0_1  -1.1815568592471748e-01
    Z_567_0_2  Z_66_0_2  -1.1815568592471748e-01
    Z_567_0_2  Z_98_1_2  -2.5510204081632645e-04
    Z_567_0_2  Z_98_0_2  -1.9999999999999996e-01
    Z_567_0_2  Z_114_0_2  -1.1815568592471748e-01
    Z_567_0_3  Z_66_0_3  -1.1815568592471748e-01
    Z_567_0_3  Z_98_1_3  -2.5510204081632645e-04
    Z_567_0_3  Z_98_0_3  -1.9999999999999996e-01
    Z_567_0_3  Z_114_0_3  -1.1815568592471748e-01
    Z_66_0_0  Z_98_1_0  -2.5510204081632645e-04
    Z_66_0_0  Z_98_0_0  -1.1815568592471748e-01
    Z_66_0_0  Z_114_0_0  -2.9408637705165389e-02
    Z_66_0_1  Z_98_1_1  -2.5510204081632645e-04
    Z_66_0_1  Z_98_0_1  -1.1815568592471748e-01
    Z_66_0_1  Z_114_0_1  -2.9408637705165389e-02
    Z_66_0_2  Z_98_1_2  -2.5510204081632645e-04
    Z_66_0_2  Z_98_0_2  -1.1815568592471748e-01
    Z_66_0_2  Z_114_0_2  -2.9408637705165389e-02
    Z_66_0_3  Z_98_1_3  -2.5510204081632645e-04
    Z_66_0_3  Z_98_0_3  -1.1815568592471748e-01
    Z_66_0_3  Z_114_0_3  -2.9408637705165389e-02
    Z_98_1_0  Z_114_0_0  -1.9999999999999996e-01
    Z_98_1_1  Z_114_0_1  -1.9999999999999996e-01
    Z_98_1_2  Z_114_0_2  -1.9999999999999996e-01
    Z_98_1_3  Z_114_0_3  -1.9999999999999996e-01
    Z_98_0_0  Z_114_0_0  -1.1815568592471748e-01
    Z_98_0_1  Z_114_0_1  -1.1815568592471748e-01
    Z_98_0_2  Z_114_0_2  -1.1815568592471748e-01
    Z_98_0_3  Z_114_0_3  -1.1815568592471748e-01
ENDATA
