ilp_joint/output/crop rotation_ilp.sol
# Solution for model crop rotation_srl_ilp
# Objective value = 1.3887726569574756e+01
Z_319_2_0 0
Z_319_2_1 0
Z_319_2_2 0
Z_319_2_3 0
Z_319_2_4 1
Z_319_5_0 0
Z_319_5_1 0
Z_319_5_2 0
Z_319_5_3 0
Z_319_5_4 1
Z_319_4_0 0
Z_319_4_1 0
Z_319_4_2 0
Z_319_4_3 0
Z_319_4_4 1
Z_319_0_0 0
Z_319_0_1 0
Z_319_0_2 0
Z_319_0_3 0
Z_319_0_4 1
Z_319_3_0 0
Z_319_3_1 0
Z_319_3_2 0
Z_319_3_3 0
Z_319_3_4 1
Z_319_1_0 0
Z_319_1_1 0
Z_319_1_2 0
Z_319_1_3 0
Z_319_1_4 1
Z_617_4_0 0
Z_617_4_1 0
Z_617_4_2 0
Z_617_4_3 0
Z_617_4_4 1
Z_617_2_0 0
Z_617_2_1 0
Z_617_2_2 0
Z_617_2_3 0
Z_617_2_4 1
Z_617_5_0 0
Z_617_5_1 0
Z_617_5_2 0
Z_617_5_3 0
Z_617_5_4 1
Z_617_1_0 0
Z_617_1_1 0
Z_617_1_2 0
Z_617_1_3 0
Z_617_1_4 1
Z_617_0_0 0
Z_617_0_1 0
Z_617_0_2 0
Z_617_0_3 0
Z_617_0_4 1
Z_617_3_0 0
Z_617_3_1 0
Z_617_3_2 0
Z_617_3_3 1
Z_617_3_4 0
Z_415_0_0 0
Z_415_0_1 0
Z_415_0_2 0
Z_415_0_3 1
Z_415_0_4 0
Z_415_4_0 0
Z_415_4_1 0
Z_415_4_2 0
Z_415_4_3 0
Z_415_4_4 1
Z_415_2_0 0
Z_415_2_1 0
Z_415_2_2 0
Z_415_2_3 0
Z_415_2_4 1
Z_415_3_0 0
Z_415_3_1 0
Z_415_3_2 0
Z_415_3_3 0
Z_415_3_4 1
Z_415_1_0 0
Z_415_1_1 0
Z_415_1_2 0
Z_415_1_3 0
Z_415_1_4 1
Z_573_0_0 0
Z_573_0_1 0
Z_573_0_2 0
Z_573_0_3 1
Z_573_0_4 0
Z_98_1_0 0
Z_98_1_1 0
Z_98_1_2 1
Z_98_1_3 0
Z_98_1_4 0
